(set-logic ALL)
(set-option :produce-models true)
(declare-sort BoundSet 0)
(declare-sort UnboundSet 0)
(declare-fun Believes (BoundSet BoundSet) Bool)
(declare-fun IsHaunted (BoundSet) Bool)
(assert (not (=> (exists ((b BoundSet)) (exists ((a BoundSet)) (and (Believes b a) (IsHaunted a)))) (exists ((a BoundSet)) (IsHaunted a)))))
(check-sat)
(get-model)